results/res_prop_muc/res_Cimatti_mathsat_cores/QF_UF/SEQ009_size9.smt.smt2.out

real	0m27.029s
user	0m26.428s
sys	0m0.536s
