results/res_prop_muc/res_Cimatti_mathsat_cores/QF_UF/SEQ009_size9.smt.smt2.res
unsat
( _c0
  _c100
  _c101
  _c102
  _c103
  _c104
  _c105
  _c109
  _c110
  _c111
  _c112
  _c113
  _c118
  _c119
  _c120
  _c121
  _c127
  _c128
  _c129
  _c136
  _c137
  _c145
  _c154
  _c155
  _c156
  _c157
  _c158
  _c159
  _c160
  _c161
  _c162
  _c325
  _c326
  _c327
  _c328
  _c329
  _c330
  _c331
  _c332
  _c333
  _c334
  _c335
  _c336
  _c337
  _c338
  _c339
  _c340
  _c341
  _c342
  _c343
  _c344
  _c345
  _c346
  _c347
  _c348
  _c349
  _c350
  _c351
  _c352
  _c353
  _c354
  _c355
  _c356
  _c357
  _c358
  _c359
  _c360
  _c361
  _c362
  _c363
  _c364
  _c365
  _c366
  _c367
  _c368
  _c369
  _c82
  _c83
  _c84
  _c85
  _c86
  _c87
  _c88
  _c89
  _c91
  _c92
  _c93
  _c94
  _c95
  _c96
  _c97 )
